5 5
4 44 0 58 2 66 1 18 3 80
2 29 1 75 4 2 3 78 0 68
4 98 3 39 0 73 2 41 1 71
3 81 2 87 4 75 1 22 0 82
0 49 2 28 1 16 4 68 3 62
-1
0 2 5
0 3 5
0 1 5
0 1 3 5
0 1 2 5
-2
140 368
111 359
139 457
83 312 535
57 109 304

409 3
20 1 12 9 19
6 3 22 18 14
5 21 16 2 13
15 11 8 4 24
0 10 7 17 23
